# Solution for model CSSolver
# Objective value = 0
x[0,0,0] 0
x[0,0,1] 0
x[0,0,2] 0
x[0,0,3] 0
x[0,0,4] 0
x[0,0,5] 0
x[0,0,6] 0
x[0,0,7] 0
x[0,1,0] 1
x[0,1,1] 0
x[0,1,2] 0
x[0,1,3] 0
x[0,1,4] 0
x[0,1,5] 0
x[0,1,6] 0
x[0,1,7] 0
x[0,2,0] 0
x[0,2,1] 0
x[0,2,2] 0
x[0,2,3] 0
x[0,2,4] 0
x[0,2,5] 0
x[0,2,6] 0
x[0,2,7] 0
x[0,3,0] 0
x[0,3,1] 0
x[0,3,2] 0
x[0,3,3] 0
x[0,3,4] 0
x[0,3,5] 0
x[0,3,6] 0
x[0,3,7] 0
x[1,0,0] 0
x[1,0,1] 0
x[1,0,2] 1
x[1,0,3] 0
x[1,0,4] 0
x[1,0,5] 0
x[1,0,6] 0
x[1,0,7] 0
x[1,1,0] 0
x[1,1,1] 0
x[1,1,2] 0
x[1,1,3] 0
x[1,1,4] 0
x[1,1,5] 0
x[1,1,6] 0
x[1,1,7] 0
x[1,2,0] 0
x[1,2,1] 0
x[1,2,2] 0
x[1,2,3] 0
x[1,2,4] 0
x[1,2,5] 0
x[1,2,6] 0
x[1,2,7] 0
x[1,3,0] 0
x[1,3,1] 0
x[1,3,2] 0
x[1,3,3] 0
x[1,3,4] 0
x[1,3,5] 0
x[1,3,6] 0
x[1,3,7] 0
x[2,0,0] 0
x[2,0,1] 0
x[2,0,2] 0
x[2,0,3] 0
x[2,0,4] 0
x[2,0,5] 0
x[2,0,6] 0
x[2,0,7] 0
x[2,1,0] 0
x[2,1,1] 0
x[2,1,2] 0
x[2,1,3] 0
x[2,1,4] 0
x[2,1,5] 0
x[2,1,6] 0
x[2,1,7] 0
x[2,2,0] 1
x[2,2,1] 0
x[2,2,2] 0
x[2,2,3] 0
x[2,2,4] 0
x[2,2,5] 0
x[2,2,6] 0
x[2,2,7] 0
x[2,3,0] 0
x[2,3,1] 0
x[2,3,2] 0
x[2,3,3] 0
x[2,3,4] 0
x[2,3,5] 0
x[2,3,6] 0
x[2,3,7] 0
x[3,0,0] 0
x[3,0,1] 0
x[3,0,2] 0
x[3,0,3] 0
x[3,0,4] 0
x[3,0,5] 0
x[3,0,6] 0
x[3,0,7] 0
x[3,1,0] 0
x[3,1,1] 0
x[3,1,2] 1
x[3,1,3] 0
x[3,1,4] 0
x[3,1,5] 0
x[3,1,6] 0
x[3,1,7] 0
x[3,2,0] 0
x[3,2,1] 0
x[3,2,2] 0
x[3,2,3] 0
x[3,2,4] 0
x[3,2,5] 0
x[3,2,6] 0
x[3,2,7] 0
x[3,3,0] 0
x[3,3,1] 0
x[3,3,2] 0
x[3,3,3] 0
x[3,3,4] 0
x[3,3,5] 0
x[3,3,6] 0
x[3,3,7] 0
x[4,0,0] 1
x[4,0,1] 0
x[4,0,2] 0
x[4,0,3] 0
x[4,0,4] 0
x[4,0,5] 0
x[4,0,6] 0
x[4,0,7] 0
x[4,1,0] 0
x[4,1,1] 0
x[4,1,2] 0
x[4,1,3] 0
x[4,1,4] 0
x[4,1,5] 0
x[4,1,6] 0
x[4,1,7] 0
x[4,2,0] 0
x[4,2,1] 0
x[4,2,2] 0
x[4,2,3] 0
x[4,2,4] 0
x[4,2,5] 0
x[4,2,6] 0
x[4,2,7] 0
x[4,3,0] 0
x[4,3,1] 0
x[4,3,2] 0
x[4,3,3] 0
x[4,3,4] 0
x[4,3,5] 0
x[4,3,6] 0
x[4,3,7] 0
x[5,0,0] 0
x[5,0,1] 0
x[5,0,2] 0
x[5,0,3] 0
x[5,0,4] 0
x[5,0,5] 0
x[5,0,6] 0
x[5,0,7] 0
x[5,1,0] 0
x[5,1,1] 0
x[5,1,2] 0
x[5,1,3] 0
x[5,1,4] 0
x[5,1,5] 0
x[5,1,6] 0
x[5,1,7] 0
x[5,2,0] 0
x[5,2,1] 1
x[5,2,2] 0
x[5,2,3] 0
x[5,2,4] 0
x[5,2,5] 0
x[5,2,6] 0
x[5,2,7] 0
x[5,3,0] 0
x[5,3,1] 0
x[5,3,2] 0
x[5,3,3] 0
x[5,3,4] 0
x[5,3,5] 0
x[5,3,6] 0
x[5,3,7] 0
x[6,0,0] 0
x[6,0,1] 0
x[6,0,2] 0
x[6,0,3] 0
x[6,0,4] 0
x[6,0,5] 0
x[6,0,6] 0
x[6,0,7] 0
x[6,1,0] 0
x[6,1,1] 0
x[6,1,2] 0
x[6,1,3] 0
x[6,1,4] 0
x[6,1,5] 0
x[6,1,6] 0
x[6,1,7] 0
x[6,2,0] 0
x[6,2,1] 0
x[6,2,2] 1
x[6,2,3] 0
x[6,2,4] 0
x[6,2,5] 0
x[6,2,6] 0
x[6,2,7] 0
x[6,3,0] 0
x[6,3,1] 0
x[6,3,2] 0
x[6,3,3] 0
x[6,3,4] 0
x[6,3,5] 0
x[6,3,6] 0
x[6,3,7] 0
x[7,0,0] 0
x[7,0,1] 0
x[7,0,2] 0
x[7,0,3] 0
x[7,0,4] 0
x[7,0,5] 0
x[7,0,6] 0
x[7,0,7] 0
x[7,1,0] 0
x[7,1,1] 1
x[7,1,2] 0
x[7,1,3] 0
x[7,1,4] 0
x[7,1,5] 0
x[7,1,6] 0
x[7,1,7] 0
x[7,2,0] 0
x[7,2,1] 0
x[7,2,2] 0
x[7,2,3] 0
x[7,2,4] 0
x[7,2,5] 0
x[7,2,6] 0
x[7,2,7] 0
x[7,3,0] 0
x[7,3,1] 0
x[7,3,2] 0
x[7,3,3] 0
x[7,3,4] 0
x[7,3,5] 0
x[7,3,6] 0
x[7,3,7] 0
x[8,0,0] 0
x[8,0,1] 0
x[8,0,2] 0
x[8,0,3] 0
x[8,0,4] 0
x[8,0,5] 0
x[8,0,6] 0
x[8,0,7] 0
x[8,1,0] 0
x[8,1,1] 0
x[8,1,2] 0
x[8,1,3] 0
x[8,1,4] 0
x[8,1,5] 0
x[8,1,6] 0
x[8,1,7] 0
x[8,2,0] 0
x[8,2,1] 0
x[8,2,2] 0
x[8,2,3] 0
x[8,2,4] 1
x[8,2,5] 0
x[8,2,6] 0
x[8,2,7] 0
x[8,3,0] 0
x[8,3,1] 0
x[8,3,2] 0
x[8,3,3] 0
x[8,3,4] 0
x[8,3,5] 0
x[8,3,6] 0
x[8,3,7] 0
x[9,0,0] 0
x[9,0,1] 0
x[9,0,2] 0
x[9,0,3] 0
x[9,0,4] 0
x[9,0,5] 1
x[9,0,6] 0
x[9,0,7] 0
x[9,1,0] 0
x[9,1,1] 0
x[9,1,2] 0
x[9,1,3] 0
x[9,1,4] 0
x[9,1,5] 0
x[9,1,6] 0
x[9,1,7] 0
x[9,2,0] 0
x[9,2,1] 0
x[9,2,2] 0
x[9,2,3] 0
x[9,2,4] 0
x[9,2,5] 0
x[9,2,6] 0
x[9,2,7] 0
x[9,3,0] 0
x[9,3,1] 0
x[9,3,2] 0
x[9,3,3] 0
x[9,3,4] 0
x[9,3,5] 0
x[9,3,6] 0
x[9,3,7] 0
x[10,0,0] 0
x[10,0,1] 0
x[10,0,2] 0
x[10,0,3] 0
x[10,0,4] 0
x[10,0,5] 0
x[10,0,6] 0
x[10,0,7] 0
x[10,1,0] 0
x[10,1,1] 0
x[10,1,2] 0
x[10,1,3] 0
x[10,1,4] 0
x[10,1,5] 0
x[10,1,6] 0
x[10,1,7] 0
x[10,2,0] 0
x[10,2,1] 0
x[10,2,2] 0
x[10,2,3] 0
x[10,2,4] 0
x[10,2,5] 1
x[10,2,6] 0
x[10,2,7] 0
x[10,3,0] 0
x[10,3,1] 0
x[10,3,2] 0
x[10,3,3] 0
x[10,3,4] 0
x[10,3,5] 0
x[10,3,6] 0
x[10,3,7] 0
x[11,0,0] 0
x[11,0,1] 0
x[11,0,2] 0
x[11,0,3] 0
x[11,0,4] 0
x[11,0,5] 0
x[11,0,6] 0
x[11,0,7] 0
x[11,1,0] 0
x[11,1,1] 0
x[11,1,2] 0
x[11,1,3] 0
x[11,1,4] 1
x[11,1,5] 0
x[11,1,6] 0
x[11,1,7] 0
x[11,2,0] 0
x[11,2,1] 0
x[11,2,2] 0
x[11,2,3] 0
x[11,2,4] 0
x[11,2,5] 0
x[11,2,6] 0
x[11,2,7] 0
x[11,3,0] 0
x[11,3,1] 0
x[11,3,2] 0
x[11,3,3] 0
x[11,3,4] 0
x[11,3,5] 0
x[11,3,6] 0
x[11,3,7] 0
x[12,0,0] 0
x[12,0,1] 0
x[12,0,2] 0
x[12,0,3] 0
x[12,0,4] 0
x[12,0,5] 0
x[12,0,6] 0
x[12,0,7] 0
x[12,1,0] 0
x[12,1,1] 0
x[12,1,2] 0
x[12,1,3] 0
x[12,1,4] 0
x[12,1,5] 1
x[12,1,6] 0
x[12,1,7] 0
x[12,2,0] 0
x[12,2,1] 0
x[12,2,2] 0
x[12,2,3] 0
x[12,2,4] 0
x[12,2,5] 0
x[12,2,6] 0
x[12,2,7] 0
x[12,3,0] 0
x[12,3,1] 0
x[12,3,2] 0
x[12,3,3] 0
x[12,3,4] 0
x[12,3,5] 0
x[12,3,6] 0
x[12,3,7] 0
x[13,0,0] 0
x[13,0,1] 0
x[13,0,2] 0
x[13,0,3] 1
x[13,0,4] 0
x[13,0,5] 0
x[13,0,6] 0
x[13,0,7] 0
x[13,1,0] 0
x[13,1,1] 0
x[13,1,2] 0
x[13,1,3] 0
x[13,1,4] 0
x[13,1,5] 0
x[13,1,6] 0
x[13,1,7] 0
x[13,2,0] 0
x[13,2,1] 0
x[13,2,2] 0
x[13,2,3] 0
x[13,2,4] 0
x[13,2,5] 0
x[13,2,6] 0
x[13,2,7] 0
x[13,3,0] 0
x[13,3,1] 0
x[13,3,2] 0
x[13,3,3] 0
x[13,3,4] 0
x[13,3,5] 0
x[13,3,6] 0
x[13,3,7] 0
x[14,0,0] 0
x[14,0,1] 0
x[14,0,2] 0
x[14,0,3] 0
x[14,0,4] 0
x[14,0,5] 0
x[14,0,6] 0
x[14,0,7] 0
x[14,1,0] 0
x[14,1,1] 0
x[14,1,2] 0
x[14,1,3] 0
x[14,1,4] 0
x[14,1,5] 0
x[14,1,6] 0
x[14,1,7] 0
x[14,2,0] 0
x[14,2,1] 0
x[14,2,2] 0
x[14,2,3] 1
x[14,2,4] 0
x[14,2,5] 0
x[14,2,6] 0
x[14,2,7] 0
x[14,3,0] 0
x[14,3,1] 0
x[14,3,2] 0
x[14,3,3] 0
x[14,3,4] 0
x[14,3,5] 0
x[14,3,6] 0
x[14,3,7] 0
x[15,0,0] 0
x[15,0,1] 0
x[15,0,2] 0
x[15,0,3] 0
x[15,0,4] 0
x[15,0,5] 0
x[15,0,6] 0
x[15,0,7] 0
x[15,1,0] 0
x[15,1,1] 0
x[15,1,2] 0
x[15,1,3] 0
x[15,1,4] 0
x[15,1,5] 0
x[15,1,6] 0
x[15,1,7] 0
x[15,2,0] 0
x[15,2,1] 0
x[15,2,2] 0
x[15,2,3] 0
x[15,2,4] 0
x[15,2,5] 0
x[15,2,6] 0
x[15,2,7] 0
x[15,3,0] 0
x[15,3,1] 0
x[15,3,2] 0
x[15,3,3] 0
x[15,3,4] 1
x[15,3,5] 0
x[15,3,6] 0
x[15,3,7] 0
x[16,0,0] 0
x[16,0,1] 0
x[16,0,2] 0
x[16,0,3] 0
x[16,0,4] 0
x[16,0,5] 0
x[16,0,6] 0
x[16,0,7] 0
x[16,1,0] 0
x[16,1,1] 0
x[16,1,2] 0
x[16,1,3] 0
x[16,1,4] 0
x[16,1,5] 0
x[16,1,6] 0
x[16,1,7] 0
x[16,2,0] 0
x[16,2,1] 0
x[16,2,2] 0
x[16,2,3] 0
x[16,2,4] 0
x[16,2,5] 0
x[16,2,6] 0
x[16,2,7] 0
x[16,3,0] 0
x[16,3,1] 1
x[16,3,2] 0
x[16,3,3] 0
x[16,3,4] 0
x[16,3,5] 0
x[16,3,6] 0
x[16,3,7] 0
x[17,0,0] 0
x[17,0,1] 0
x[17,0,2] 0
x[17,0,3] 0
x[17,0,4] 0
x[17,0,5] 0
x[17,0,6] 0
x[17,0,7] 0
x[17,1,0] 0
x[17,1,1] 0
x[17,1,2] 0
x[17,1,3] 0
x[17,1,4] 0
x[17,1,5] 0
x[17,1,6] 0
x[17,1,7] 0
x[17,2,0] 0
x[17,2,1] 0
x[17,2,2] 0
x[17,2,3] 0
x[17,2,4] 0
x[17,2,5] 0
x[17,2,6] 0
x[17,2,7] 0
x[17,3,0] 1
x[17,3,1] 0
x[17,3,2] 0
x[17,3,3] 0
x[17,3,4] 0
x[17,3,5] 0
x[17,3,6] 0
x[17,3,7] 0
x[18,0,0] 0
x[18,0,1] 1
x[18,0,2] 0
x[18,0,3] 0
x[18,0,4] 0
x[18,0,5] 0
x[18,0,6] 0
x[18,0,7] 0
x[18,1,0] 0
x[18,1,1] 0
x[18,1,2] 0
x[18,1,3] 0
x[18,1,4] 0
x[18,1,5] 0
x[18,1,6] 0
x[18,1,7] 0
x[18,2,0] 0
x[18,2,1] 0
x[18,2,2] 0
x[18,2,3] 0
x[18,2,4] 0
x[18,2,5] 0
x[18,2,6] 0
x[18,2,7] 0
x[18,3,0] 0
x[18,3,1] 0
x[18,3,2] 0
x[18,3,3] 0
x[18,3,4] 0
x[18,3,5] 0
x[18,3,6] 0
x[18,3,7] 0
x[19,0,0] 0
x[19,0,1] 0
x[19,0,2] 0
x[19,0,3] 0
x[19,0,4] 0
x[19,0,5] 0
x[19,0,6] 0
x[19,0,7] 0
x[19,1,0] 0
x[19,1,1] 0
x[19,1,2] 0
x[19,1,3] 0
x[19,1,4] 0
x[19,1,5] 0
x[19,1,6] 0
x[19,1,7] 0
x[19,2,0] 0
x[19,2,1] 0
x[19,2,2] 0
x[19,2,3] 0
x[19,2,4] 0
x[19,2,5] 0
x[19,2,6] 0
x[19,2,7] 0
x[19,3,0] 0
x[19,3,1] 0
x[19,3,2] 1
x[19,3,3] 0
x[19,3,4] 0
x[19,3,5] 0
x[19,3,6] 0
x[19,3,7] 0
x[20,0,0] 0
x[20,0,1] 0
x[20,0,2] 0
x[20,0,3] 0
x[20,0,4] 0
x[20,0,5] 0
x[20,0,6] 0
x[20,0,7] 0
x[20,1,0] 0
x[20,1,1] 0
x[20,1,2] 0
x[20,1,3] 0
x[20,1,4] 0
x[20,1,5] 0
x[20,1,6] 0
x[20,1,7] 0
x[20,2,0] 0
x[20,2,1] 0
x[20,2,2] 0
x[20,2,3] 0
x[20,2,4] 0
x[20,2,5] 0
x[20,2,6] 0
x[20,2,7] 0
x[20,3,0] 0
x[20,3,1] 0
x[20,3,2] 0
x[20,3,3] 1
x[20,3,4] 0
x[20,3,5] 0
x[20,3,6] 0
x[20,3,7] 0
x[21,0,0] 0
x[21,0,1] 0
x[21,0,2] 0
x[21,0,3] 0
x[21,0,4] 0
x[21,0,5] 0
x[21,0,6] 0
x[21,0,7] 0
x[21,1,0] 0
x[21,1,1] 0
x[21,1,2] 0
x[21,1,3] 0
x[21,1,4] 0
x[21,1,5] 0
x[21,1,6] 0
x[21,1,7] 0
x[21,2,0] 0
x[21,2,1] 0
x[21,2,2] 0
x[21,2,3] 0
x[21,2,4] 0
x[21,2,5] 0
x[21,2,6] 0
x[21,2,7] 0
x[21,3,0] 0
x[21,3,1] 0
x[21,3,2] 0
x[21,3,3] 0
x[21,3,4] 0
x[21,3,5] 1
x[21,3,6] 0
x[21,3,7] 0
x[22,0,0] 0
x[22,0,1] 0
x[22,0,2] 0
x[22,0,3] 0
x[22,0,4] 0
x[22,0,5] 0
x[22,0,6] 0
x[22,0,7] 0
x[22,1,0] 0
x[22,1,1] 0
x[22,1,2] 0
x[22,1,3] 1
x[22,1,4] 0
x[22,1,5] 0
x[22,1,6] 0
x[22,1,7] 0
x[22,2,0] 0
x[22,2,1] 0
x[22,2,2] 0
x[22,2,3] 0
x[22,2,4] 0
x[22,2,5] 0
x[22,2,6] 0
x[22,2,7] 0
x[22,3,0] 0
x[22,3,1] 0
x[22,3,2] 0
x[22,3,3] 0
x[22,3,4] 0
x[22,3,5] 0
x[22,3,6] 0
x[22,3,7] 0
x[23,0,0] 0
x[23,0,1] 0
x[23,0,2] 0
x[23,0,3] 0
x[23,0,4] 1
x[23,0,5] 0
x[23,0,6] 0
x[23,0,7] 0
x[23,1,0] 0
x[23,1,1] 0
x[23,1,2] 0
x[23,1,3] 0
x[23,1,4] 0
x[23,1,5] 0
x[23,1,6] 0
x[23,1,7] 0
x[23,2,0] 0
x[23,2,1] 0
x[23,2,2] 0
x[23,2,3] 0
x[23,2,4] 0
x[23,2,5] 0
x[23,2,6] 0
x[23,2,7] 0
x[23,3,0] 0
x[23,3,1] 0
x[23,3,2] 0
x[23,3,3] 0
x[23,3,4] 0
x[23,3,5] 0
x[23,3,6] 0
x[23,3,7] 0
x[24,0,0] 0
x[24,0,1] 0
x[24,0,2] 0
x[24,0,3] 0
x[24,0,4] 0
x[24,0,5] 0
x[24,0,6] 0
x[24,0,7] 0
x[24,1,0] 0
x[24,1,1] 0
x[24,1,2] 0
x[24,1,3] 0
x[24,1,4] 0
x[24,1,5] 0
x[24,1,6] 1
x[24,1,7] 0
x[24,2,0] 0
x[24,2,1] 0
x[24,2,2] 0
x[24,2,3] 0
x[24,2,4] 0
x[24,2,5] 0
x[24,2,6] 0
x[24,2,7] 0
x[24,3,0] 0
x[24,3,1] 0
x[24,3,2] 0
x[24,3,3] 0
x[24,3,4] 0
x[24,3,5] 0
x[24,3,6] 0
x[24,3,7] 0
x[25,0,0] 0
x[25,0,1] 0
x[25,0,2] 0
x[25,0,3] 0
x[25,0,4] 0
x[25,0,5] 0
x[25,0,6] 0
x[25,0,7] 0
x[25,1,0] 0
x[25,1,1] 0
x[25,1,2] 0
x[25,1,3] 0
x[25,1,4] 0
x[25,1,5] 0
x[25,1,6] 0
x[25,1,7] 0
x[25,2,0] 0
x[25,2,1] 0
x[25,2,2] 0
x[25,2,3] 0
x[25,2,4] 0
x[25,2,5] 0
x[25,2,6] 0
x[25,2,7] 0
x[25,3,0] 0
x[25,3,1] 0
x[25,3,2] 0
x[25,3,3] 0
x[25,3,4] 0
x[25,3,5] 0
x[25,3,6] 0
x[25,3,7] 1
x[26,0,0] 0
x[26,0,1] 0
x[26,0,2] 0
x[26,0,3] 0
x[26,0,4] 0
x[26,0,5] 0
x[26,0,6] 0
x[26,0,7] 0
x[26,1,0] 0
x[26,1,1] 0
x[26,1,2] 0
x[26,1,3] 0
x[26,1,4] 0
x[26,1,5] 0
x[26,1,6] 0
x[26,1,7] 1
x[26,2,0] 0
x[26,2,1] 0
x[26,2,2] 0
x[26,2,3] 0
x[26,2,4] 0
x[26,2,5] 0
x[26,2,6] 0
x[26,2,7] 0
x[26,3,0] 0
x[26,3,1] 0
x[26,3,2] 0
x[26,3,3] 0
x[26,3,4] 0
x[26,3,5] 0
x[26,3,6] 0
x[26,3,7] 0
x[27,0,0] 0
x[27,0,1] 0
x[27,0,2] 0
x[27,0,3] 0
x[27,0,4] 0
x[27,0,5] 0
x[27,0,6] 0
x[27,0,7] 1
x[27,1,0] 0
x[27,1,1] 0
x[27,1,2] 0
x[27,1,3] 0
x[27,1,4] 0
x[27,1,5] 0
x[27,1,6] 0
x[27,1,7] 0
x[27,2,0] 0
x[27,2,1] 0
x[27,2,2] 0
x[27,2,3] 0
x[27,2,4] 0
x[27,2,5] 0
x[27,2,6] 0
x[27,2,7] 0
x[27,3,0] 0
x[27,3,1] 0
x[27,3,2] 0
x[27,3,3] 0
x[27,3,4] 0
x[27,3,5] 0
x[27,3,6] 0
x[27,3,7] 0
x[28,0,0] 0
x[28,0,1] 0
x[28,0,2] 0
x[28,0,3] 0
x[28,0,4] 0
x[28,0,5] 0
x[28,0,6] 1
x[28,0,7] 0
x[28,1,0] 0
x[28,1,1] 0
x[28,1,2] 0
x[28,1,3] 0
x[28,1,4] 0
x[28,1,5] 0
x[28,1,6] 0
x[28,1,7] 0
x[28,2,0] 0
x[28,2,1] 0
x[28,2,2] 0
x[28,2,3] 0
x[28,2,4] 0
x[28,2,5] 0
x[28,2,6] 0
x[28,2,7] 0
x[28,3,0] 0
x[28,3,1] 0
x[28,3,2] 0
x[28,3,3] 0
x[28,3,4] 0
x[28,3,5] 0
x[28,3,6] 0
x[28,3,7] 0
x[29,0,0] 0
x[29,0,1] 0
x[29,0,2] 0
x[29,0,3] 0
x[29,0,4] 0
x[29,0,5] 0
x[29,0,6] 0
x[29,0,7] 0
x[29,1,0] 0
x[29,1,1] 0
x[29,1,2] 0
x[29,1,3] 0
x[29,1,4] 0
x[29,1,5] 0
x[29,1,6] 0
x[29,1,7] 0
x[29,2,0] 0
x[29,2,1] 0
x[29,2,2] 0
x[29,2,3] 0
x[29,2,4] 0
x[29,2,5] 0
x[29,2,6] 0
x[29,2,7] 0
x[29,3,0] 0
x[29,3,1] 0
x[29,3,2] 0
x[29,3,3] 0
x[29,3,4] 0
x[29,3,5] 0
x[29,3,6] 1
x[29,3,7] 0
x[30,0,0] 0
x[30,0,1] 0
x[30,0,2] 0
x[30,0,3] 0
x[30,0,4] 0
x[30,0,5] 0
x[30,0,6] 0
x[30,0,7] 0
x[30,1,0] 0
x[30,1,1] 0
x[30,1,2] 0
x[30,1,3] 0
x[30,1,4] 0
x[30,1,5] 0
x[30,1,6] 0
x[30,1,7] 0
x[30,2,0] 0
x[30,2,1] 0
x[30,2,2] 0
x[30,2,3] 0
x[30,2,4] 0
x[30,2,5] 0
x[30,2,6] 0
x[30,2,7] 1
x[30,3,0] 0
x[30,3,1] 0
x[30,3,2] 0
x[30,3,3] 0
x[30,3,4] 0
x[30,3,5] 0
x[30,3,6] 0
x[30,3,7] 0
x[31,0,0] 0
x[31,0,1] 0
x[31,0,2] 0
x[31,0,3] 0
x[31,0,4] 0
x[31,0,5] 0
x[31,0,6] 0
x[31,0,7] 0
x[31,1,0] 0
x[31,1,1] 0
x[31,1,2] 0
x[31,1,3] 0
x[31,1,4] 0
x[31,1,5] 0
x[31,1,6] 0
x[31,1,7] 0
x[31,2,0] 0
x[31,2,1] 0
x[31,2,2] 0
x[31,2,3] 0
x[31,2,4] 0
x[31,2,5] 0
x[31,2,6] 1
x[31,2,7] 0
x[31,3,0] 0
x[31,3,1] 0
x[31,3,2] 0
x[31,3,3] 0
x[31,3,4] 0
x[31,3,5] 0
x[31,3,6] 0
x[31,3,7] 0
y[0,0,0] 0
y[0,0,1] 0
y[0,1,0] 1
y[0,1,1] 0
y[0,2,0] 0
y[0,2,1] 0
y[0,3,0] 0
y[0,3,1] 0
y[1,0,0] 1
y[1,0,1] 0
y[1,1,0] 0
y[1,1,1] 0
y[1,2,0] 0
y[1,2,1] 0
y[1,3,0] 0
y[1,3,1] 0
y[2,0,0] 0
y[2,0,1] 0
y[2,1,0] 0
y[2,1,1] 0
y[2,2,0] 1
y[2,2,1] 0
y[2,3,0] 0
y[2,3,1] 0
y[3,0,0] 0
y[3,0,1] 1
y[3,1,0] 0
y[3,1,1] 0
y[3,2,0] 0
y[3,2,1] 0
y[3,3,0] 0
y[3,3,1] 0
y[4,0,0] 0
y[4,0,1] 0
y[4,1,0] 0
y[4,1,1] 0
y[4,2,0] 0
y[4,2,1] 1
y[4,3,0] 0
y[4,3,1] 0
y[5,0,0] 0
y[5,0,1] 0
y[5,1,0] 0
y[5,1,1] 0
y[5,2,0] 0
y[5,2,1] 0
y[5,3,0] 0
y[5,3,1] 1
y[6,0,0] 0
y[6,0,1] 0
y[6,1,0] 0
y[6,1,1] 1
y[6,2,0] 0
y[6,2,1] 0
y[6,3,0] 0
y[6,3,1] 0
y[7,0,0] 0
y[7,0,1] 0
y[7,1,0] 0
y[7,1,1] 0
y[7,2,0] 0
y[7,2,1] 0
y[7,3,0] 1
y[7,3,1] 0
z 0
Dy[0,0] 0
Dy[0,1] 0
Dy[0,2] 0
Dy[0,3] 0
Dy[0,4] 0
Dy[0,5] 0
Dy[0,6] 0
Dy[0,7] 0
Dy[1,0] 0
Dy[1,1] 0
Dy[1,2] 0
Dy[1,3] 0
Dy[1,4] 0
Dy[1,5] 0
Dy[1,6] 0
Dy[1,7] 0
Dy[2,0] 0
Dy[2,1] 0
Dy[2,2] 0
Dy[2,3] 0
Dy[2,4] 0
Dy[2,5] 0
Dy[2,6] 0
Dy[2,7] 0
Dy[3,0] 0
Dy[3,1] 0
Dy[3,2] 0
Dy[3,3] 0
Dy[3,4] 0
Dy[3,5] 0
Dy[3,6] 0
Dy[3,7] 0
Dy[4,0] 0
Dy[4,1] 1
Dy[4,2] 0
Dy[4,3] 0
Dy[4,4] 0
Dy[4,5] 1
Dy[4,6] 1
Dy[4,7] 0
Dy[5,0] 1
Dy[5,1] 0
Dy[5,2] 0
Dy[5,3] 0
Dy[5,4] 1
Dy[5,5] 0
Dy[5,6] 0
Dy[5,7] 1
Dy[6,0] 0
Dy[6,1] 0
Dy[6,2] 1
Dy[6,3] 1
Dy[6,4] 0
Dy[6,5] 0
Dy[6,6] 0
Dy[6,7] 0
Dy[7,0] 0
Dy[7,1] 0
Dy[7,2] 0
Dy[7,3] 0
Dy[7,4] 0
Dy[7,5] 0
Dy[7,6] 0
Dy[7,7] 0
Dy[8,0] 0
Dy[8,1] 0
Dy[8,2] 0
Dy[8,3] 0
Dy[8,4] 0
Dy[8,5] 0
Dy[8,6] 0
Dy[8,7] 0
Dy[9,0] 0
Dy[9,1] 0
Dy[9,2] 0
Dy[9,3] 0
Dy[9,4] 0
Dy[9,5] 0
Dy[9,6] 0
Dy[9,7] 0
Oy[0,0] 0
Oy[0,1] 0
Oy[0,2] 0
Oy[0,3] 0
Oy[0,4] 0
Oy[0,5] 0
Oy[0,6] 0
Oy[0,7] 0
Oy[1,0] 0
Oy[1,1] 0
Oy[1,2] 0
Oy[1,3] 0
Oy[1,4] 0
Oy[1,5] 0
Oy[1,6] 0
Oy[1,7] 0
Oy[2,0] 0
Oy[2,1] 0
Oy[2,2] 0
Oy[2,3] 0
Oy[2,4] 0
Oy[2,5] 0
Oy[2,6] 0
Oy[2,7] 0
Oy[3,0] 0
Oy[3,1] 0
Oy[3,2] 0
Oy[3,3] 0
Oy[3,4] 0
Oy[3,5] 0
Oy[3,6] 0
Oy[3,7] 0
Oy[4,0] 0
Oy[4,1] 0
Oy[4,2] 0
Oy[4,3] 0
Oy[4,4] 0
Oy[4,5] 0
Oy[4,6] 0
Oy[4,7] 0
Oy[5,0] 0
Oy[5,1] 0
Oy[5,2] 0
Oy[5,3] 0
Oy[5,4] 0
Oy[5,5] 0
Oy[5,6] 0
Oy[5,7] 0
Oy[6,0] 0
Oy[6,1] 0
Oy[6,2] 0
Oy[6,3] 0
Oy[6,4] 0
Oy[6,5] 0
Oy[6,6] 0
Oy[6,7] 0
Oy[7,0] 0
Oy[7,1] 0
Oy[7,2] 1
Oy[7,3] 1
Oy[7,4] 0
Oy[7,5] 0
Oy[7,6] 0
Oy[7,7] 0
Oy[8,0] 0
Oy[8,1] 1
Oy[8,2] 0
Oy[8,3] 0
Oy[8,4] 0
Oy[8,5] 1
Oy[8,6] 1
Oy[8,7] 0
Oy[9,0] 1
Oy[9,1] 0
Oy[9,2] 0
Oy[9,3] 0
Oy[9,4] 1
Oy[9,5] 0
Oy[9,6] 0
Oy[9,7] 1
xBP[0] 0
xBP[1] 1
xBP[2] 0
xBP[3] 0
xBP[4] 1
xBP[5] 1
xBP[6] 0
xBP[7] 0
yBP[0,0] 1
yBP[0,1] 1
yBP[0,2] 1
yBP[0,3] 1
yBP[1,0] 1
yBP[1,1] 1
yBP[1,2] 1
yBP[1,3] 1
yBP[2,0] 1
yBP[2,1] 1
yBP[2,2] 1
yBP[2,3] 1
yBP[3,0] 1
yBP[3,1] 1
yBP[3,2] 1
yBP[3,3] 1
yBP[4,0] 1
yBP[4,1] 1
yBP[4,2] 1
yBP[4,3] 1
yBP[5,0] 1
yBP[5,1] 1
yBP[5,2] 1
yBP[5,3] 1
yBP[6,0] 1
yBP[6,1] 1
yBP[6,2] 1
yBP[6,3] 1
yBP[7,0] 1
yBP[7,1] 1
yBP[7,2] 1
yBP[7,3] 1
